c E(0,1) E(1,0) E(0,2) E(2,0) E(0,3) E(3,0) E(1,2) E(2,1) E(1,3) E(3,1) E(2,3) E(3,2)
c 1      2      3      4      5      6      7      8      9      10     11     12
p cnf 12 16
1 3 5 0
2 7 9 0
4 8 11 0
6 10 12 0
-1 2 0
1 -2 0
-3 4 0
3 -4 0
-5 6 0
5 -6 0
-7 8 0
7 -8 0
-9 10 0
9 -10 0
-11 12 0
11 -12 0